sat
(:added-eqs           2449576
 :binary-propagations 20257542
 :bv-bit2core         2376670
 :bv-diseqs           1095
 :bv-dynamic-diseqs   93291
 :bv-dynamic-eqs      5451
 :bv->core-eq         1427433
 :conflicts           72544
 :decisions           245563
 :del-clause          376053
 :final-checks        1
 :max-memory          54.20
 :memory              26.37
 :minimized-lits      1019664
 :mk-bool-var         461586
 :mk-clause           529248
 :mk-clause-binary    33884
 :num-allocs          715930215
 :num-checks          1
 :propagations        55442409
 :restarts            290
 :rlimit-count        75547727
 :sat-mk-var          1
 :solve-eqs-elim-vars 4
 :solve-eqs-steps     1184
 :time                13.76
 :total-time          13.72)
